Route #1: 51 16 49 24 56 23 63 33 6
Route #2: 73 1 43 41 42 64 22 62 2 68
Route #3: 75 30 74 28 61 21 48 4
Route #4: 57 15 37 20 70 60 71 69 36 47 5 29 45
Route #5: 67 34 52 27 13 54 19 8 46
Route #6: 7 53 11 66 59 14 35
Route #7: 17 40 72 31 10 65 38 58 26
Route #8: 12 39 9 25 55 18 50 32 44 3
Cost 740
Time 0.110159
